p cnf 14 23
-14 12 4 0
-14 -8 -6 0
-14 -7 4 0
14 -6 5 0
-13 12 -2 0
-13 -11 -7 0
-13 -9 8 0
-13 -8 5 0
-13 -6 -5 0
-13 -5 2 0
-12 9 7 0
-12 -8 -3 0
-12 -7 -5 0
12 -7 1 0
-12 -5 1 0
-12 3 -1 0
11 -9 -1 0
-11 7 -4 0
-9 -8 2 0
9 6 -1 0
9 4 -2 0
-8 7 -6 0
-4 3 -2 0
